40 12
8 607
4 903
5 429
9 981
1 767
5 447
11 683
9 284
11 115
3 346
10 336
6 942
8 542
7 343
9 262
7 961
5 915
3 860
8 726
2 979
8 782
6 27
3 351
3 750
8 619
2 512
1 281
11 980
5 947
4 240
9 265
6 129
10 556
8 742
3 28
11 601
4 609
1 967
8 345
7 346
